
Gurobi 12.0.2 (win64) logging started Fri Jun  6 10:10:29 2025

Set parameter LogFile to value "C:\Ioana\_uni\honours\slp\algorithm\Main_files\results\others\prox_tubules_new\Task_024_Sample001_irr_gurobi.log"
Gurobi Optimizer version 12.0.2 build v12.0.2rc0 (win64 - Windows 11.0 (26100.2))

CPU model: Intel(R) Core(TM) Ultra 5 125H, instruction set [SSE2|AVX|AVX2]
Thread count: 14 physical cores, 18 logical processors, using up to 18 threads

Non-default parameters:
TimeLimit  2200

Optimize a model with 47658 rows, 34803 columns and 147850 nonzeros
Model fingerprint: 0x69e28550
Variable types: 17409 continuous, 17394 integer (17394 binary)
Coefficient statistics:
  Matrix range     [1e-04, 8e+04]
  Objective range  [1e-04, 1e+01]
  Bounds range     [1e+00, 1e+03]
  RHS range        [1e+00, 1e+00]
Presolve removed 31209 rows and 21844 columns
Presolve time: 0.31s
Presolved: 16449 rows, 12959 columns, 54672 nonzeros
Variable types: 6413 continuous, 6546 integer (6546 binary)
Found heuristic solution: objective 23.8542131

Root relaxation: objective 3.659308e-03, 1447 iterations, 0.10 seconds (0.15 work units)

    Nodes    |    Current Node    |     Objective Bounds      |     Work
 Expl Unexpl |  Obj  Depth IntInf | Incumbent    BestBd   Gap | It/Node Time

     0     0    0.00366    0    9   23.85421    0.00366   100%     -    0s
H    0     0                       1.9059744    0.00366   100%     -    0s
     0     0    0.99446    0    6    1.90597    0.99446  47.8%     -    0s
     0     0    0.99726    0    7    1.90597    0.99726  47.7%     -    0s
     0     0    1.88253    0    7    1.90597    1.88253  1.23%     -    0s
     0     0    1.88253    0    7    1.90597    1.88253  1.23%     -    0s
     0     0    1.88253    0    4    1.90597    1.88253  1.23%     -    1s
     0     0    1.88588    0   14    1.90597    1.88588  1.05%     -    1s

Explored 1 nodes (4012 simplex iterations) in 1.17 seconds (1.29 work units)
Thread count was 18 (of 18 available processors)

Solution count 2: 1.90597 23.8542 

Optimal solution found (tolerance 1.00e-04)
Best objective 1.905974414125e+00, best bound 1.905974414125e+00, gap 0.0000%
